; benchmark generated from python API
(set-info :status unknown)
(declare-fun x_day () Int)
(declare-fun x_month () Int)
(declare-fun x_year () Int)
(declare-fun x_epoch () Int)
(declare-fun y_day () Int)
(declare-fun y_month () Int)
(declare-fun y_year () Int)
(declare-fun y_epoch () Int)
(declare-fun x_shift_period_825797_day () Int)
(declare-fun x_shift_period_825797_month () Int)
(declare-fun x_shift_period_825797_year () Int)
(declare-fun x_shift_period_825797_epoch () Int)
(assert
 (let (($x638 (= (mod x_year 4) 0)))
 (let (($x273 (= (mod x_year 100) 0)))
 (let (($x679 (= (mod x_year 400) 0)))
 (let (($x3912 (ite $x679 true (ite $x273 false $x638))))
 (let (($x1580 (= x_month 9)))
 (let ((?x1526 (ite $x1580 243 (ite (= x_month 10) 273 (ite (= x_month 11) 304 334)))))
 (let (($x399 (= x_month 6)))
 (let ((?x490 (ite $x399 151 (ite (= x_month 7) 181 (ite (= x_month 8) 212 ?x1526)))))
 (let (($x1789 (= x_month 4)))
 (let ((?x610 (ite (= x_month 3) 59 (ite $x1789 90 (ite (= x_month 5) 120 ?x490)))))
 (let (($x248 (= x_month 2)))
 (let (($x113 (= x_month 1)))
 (let ((?x1519 (ite $x113 0 (ite $x248 31 ?x610))))
 (let ((?x420 (- (+ (* 365 (- x_year 1)) (div (- x_year 1) 4)) (div (- x_year 1) 100))))
 (let ((?x1324 (+ (+ ?x420 (div (- x_year 1) 400)) (+ ?x1519 (ite (and $x3912 (> x_month 2)) 1 0)))))
 (let (($x3906 (<= x_year 2400)))
 (let (($x590 (>= x_year 1600)))
 (let ((?x941 (ite (or $x1789 $x399 $x1580 (= x_month 11)) 30 31)))
 (let ((?x139 (ite $x248 (ite $x3912 29 28) ?x941)))
 (let (($x444 (>= x_day 1)))
 (let (($x1167 (<= x_month 12)))
 (let (($x1264 (>= x_month 1)))
 (and $x1264 $x1167 $x444 (<= x_day ?x139) $x590 $x3906 (= x_epoch (+ ?x1324 (- x_day 1)))))))))))))))))))))))))))
(assert
 (let (($x3901 (= (mod y_year 4) 0)))
 (let (($x3539 (= (mod y_year 100) 0)))
 (let (($x3286 (= (mod y_year 400) 0)))
 (let (($x3834 (ite $x3286 true (ite $x3539 false $x3901))))
 (let (($x1940 (= y_month 9)))
 (let ((?x1735 (ite $x1940 243 (ite (= y_month 10) 273 (ite (= y_month 11) 304 334)))))
 (let (($x2822 (= y_month 6)))
 (let ((?x2969 (ite $x2822 151 (ite (= y_month 7) 181 (ite (= y_month 8) 212 ?x1735)))))
 (let (($x985 (= y_month 4)))
 (let ((?x1852 (ite (= y_month 3) 59 (ite $x985 90 (ite (= y_month 5) 120 ?x2969)))))
 (let (($x2030 (= y_month 2)))
 (let ((?x2826 (ite (= y_month 1) 0 (ite $x2030 31 ?x1852))))
 (let ((?x3232 (- (+ (* 365 (- y_year 1)) (div (- y_year 1) 4)) (div (- y_year 1) 100))))
 (let ((?x3589 (+ (+ ?x3232 (div (- y_year 1) 400)) (+ ?x2826 (ite (and $x3834 (> y_month 2)) 1 0)))))
 (let (($x1125 (<= y_year 2400)))
 (let (($x2400 (>= y_year 1600)))
 (let ((?x3068 (ite (or $x985 $x2822 $x1940 (= y_month 11)) 30 31)))
 (let ((?x2272 (ite $x2030 (ite $x3834 29 28) ?x3068)))
 (let (($x1887 (>= y_day 1)))
 (let (($x3454 (<= y_month 12)))
 (let (($x2029 (>= y_month 1)))
 (and $x2029 $x3454 $x1887 (<= y_day ?x2272) $x2400 $x1125 (= y_epoch (+ ?x3589 (- y_day 1))))))))))))))))))))))))))
(assert
 (let (($x3609 (= x_day 31)))
 (let (($x113 (= x_month 1)))
 (let (($x954 (= x_year 2023)))
 (and $x954 $x113 $x3609)))))
(assert
 (let (($x1840 (= (mod x_shift_period_825797_year 4) 0)))
 (let (($x719 (= (mod x_shift_period_825797_year 100) 0)))
 (let (($x1806 (= (mod x_shift_period_825797_year 400) 0)))
 (let (($x2549 (ite $x1806 true (ite $x719 false $x1840))))
 (let ((?x1862 (ite (= x_shift_period_825797_month 10) 273 (ite (= x_shift_period_825797_month 11) 304 334))))
 (let (($x2559 (= x_shift_period_825797_month 9)))
 (let ((?x1355 (ite (= x_shift_period_825797_month 7) 181 (ite (= x_shift_period_825797_month 8) 212 (ite $x2559 243 ?x1862)))))
 (let (($x3270 (= x_shift_period_825797_month 6)))
 (let (($x2647 (= x_shift_period_825797_month 4)))
 (let ((?x2005 (ite $x2647 90 (ite (= x_shift_period_825797_month 5) 120 (ite $x3270 151 ?x1355)))))
 (let (($x3319 (= x_shift_period_825797_month 2)))
 (let ((?x3963 (ite (= x_shift_period_825797_month 1) 0 (ite $x3319 31 (ite (= x_shift_period_825797_month 3) 59 ?x2005)))))
 (let ((?x1781 (+ ?x3963 (ite (and $x2549 (> x_shift_period_825797_month 2)) 1 0))))
 (let ((?x3571 (+ (* 365 (- x_shift_period_825797_year 1)) (div (- x_shift_period_825797_year 1) 4))))
 (let ((?x962 (+ (- ?x3571 (div (- x_shift_period_825797_year 1) 100)) (div (- x_shift_period_825797_year 1) 400))))
 (let (($x2571 (= x_shift_period_825797_epoch (+ (+ ?x962 ?x1781) (- x_shift_period_825797_day 1)))))
 (let (($x1766 (<= x_shift_period_825797_year 2400)))
 (let (($x1848 (>= x_shift_period_825797_year 1600)))
 (let ((?x1792 (ite (or $x2647 $x3270 $x2559 (= x_shift_period_825797_month 11)) 30 31)))
 (let (($x2013 (>= x_shift_period_825797_day 1)))
 (let (($x2251 (<= x_shift_period_825797_month 12)))
 (let (($x1325 (>= x_shift_period_825797_month 1)))
 (and $x1325 $x2251 $x2013 (<= x_shift_period_825797_day (ite $x3319 (ite $x2549 29 28) ?x1792)) $x1848 $x1766 $x2571))))))))))))))))))))))))
(assert
 (let ((?x468 (* 12 x_year)))
 (let ((?x283 (+ ?x468 (- x_month 1))))
 (let ((?x2289 (+ ?x283 3)))
 (let ((?x3214 (div ?x2289 12)))
 (= x_shift_period_825797_year ?x3214))))))
(assert
 (let ((?x1005 (+ (mod (+ (+ (* 12 x_year) (- x_month 1)) 3) 12) 1)))
 (= x_shift_period_825797_month ?x1005)))
(assert
 (let ((?x1005 (+ (mod (+ (+ (* 12 x_year) (- x_month 1)) 3) 12) 1)))
 (let ((?x1163 (ite (or (= ?x1005 4) (= ?x1005 6) (= ?x1005 9) (= ?x1005 11)) 30 31)))
 (let ((?x468 (* 12 x_year)))
 (let ((?x283 (+ ?x468 (- x_month 1))))
 (let ((?x2289 (+ ?x283 3)))
 (let ((?x3214 (div ?x2289 12)))
 (let (($x2167 (ite (= (mod ?x3214 400) 0) true (ite (= (mod ?x3214 100) 0) false (= (mod ?x3214 4) 0)))))
 (let ((?x1964 (ite (= ?x1005 2) (ite $x2167 29 28) ?x1163)))
 (let ((?x2318 (ite (<= x_day ?x1964) x_day ?x1964)))
 (let (($x284 (= x_month 11)))
 (let (($x1580 (= x_month 9)))
 (let (($x399 (= x_month 6)))
 (let (($x1789 (= x_month 4)))
 (let ((?x941 (ite (or $x1789 $x399 $x1580 $x284) 30 31)))
 (let (($x638 (= (mod x_year 4) 0)))
 (let (($x273 (= (mod x_year 100) 0)))
 (let (($x679 (= (mod x_year 400) 0)))
 (let (($x3912 (ite $x679 true (ite $x273 false $x638))))
 (let (($x248 (= x_month 2)))
 (let ((?x139 (ite $x248 (ite $x3912 29 28) ?x941)))
 (let (($x239 (= x_day ?x139)))
 (= x_shift_period_825797_day (ite false (ite $x239 ?x1964 ?x2318) ?x2318))))))))))))))))))))))))
(assert
 (= y_epoch x_shift_period_825797_epoch))
(assert
 (let (($x3116 (= y_day 30)))
(let (($x985 (= y_month 4)))
(let (($x1866 (= y_year 2023)))
(and $x1866 $x985 $x3116)))))
(check-sat)
